NAME: test1192
TYPE: TSP
DIMENSION: 11
EDGE_WEIGHT_TYPE: EUC_2D
NODE_COORD_SECTION
1 0.8982833115501188 15.259603271583
2 59.10182622758824 55.274907132497056
3 59.09163944456156 92.9079706566413
4 54.355874800569524 45.869956151832106
5 61.108167606395206 39.30485747492279
6 63.4365367925956 40.28314217333999
7 94.31870790509326 97.30798996674498
8 97.56027958975397 27.495075982219163
9 32.83450282123117 66.32604019109557
10 58.17621625857174 75.1427319071401
11 42.10781728588542 73.42327494012288
EOF
